certificates/rado_a7_c38_N14.cnf
c Rad2 upper bound instance: x1 + 7*x2 - x3 = 38, interval [1,14]
p cnf 14 54
1 5 6 0
-1 -5 -6 0
1 7 12 0
-1 -7 -12 0
2 6 0
-2 -6 0
2 7 13 0
-2 -7 -13 0
3 6 7 0
-3 -6 -7 0
3 7 14 0
-3 -7 -14 0
1 4 5 0
-1 -4 -5 0
4 6 8 0
-4 -6 -8 0
2 5 0
-2 -5 0
5 6 9 0
-5 -6 -9 0
3 5 6 0
-3 -5 -6 0
6 10 0
-6 -10 0
4 5 7 0
-4 -5 -7 0
6 7 11 0
-6 -7 -11 0
5 8 0
-5 -8 0
6 8 12 0
-6 -8 -12 0
6 9 13 0
-6 -9 -13 0
5 7 10 0
-5 -7 -10 0
6 10 14 0
-6 -10 -14 0
1 4 11 0
-1 -4 -11 0
5 8 11 0
-5 -8 -11 0
2 4 12 0
-2 -4 -12 0
5 9 12 0
-5 -9 -12 0
3 4 13 0
-3 -4 -13 0
5 10 13 0
-5 -10 -13 0
4 14 0
-4 -14 0
5 11 14 0
-5 -11 -14 0
