certificates/rado_a7_c38_N14.drat
5 -13 4 0
-5 -14 0
-14 0
4 0
-5 13 0
5 0
-2 0
-8 0
-1 0
-7 0
13 0
6 0
12 0
3 0
0
